(set-logic QF_S)
(declare-fun var_0xINPUT_167106 () String)
(assert (and (= (len var_0xINPUT_167106) 0) (= (len var_0xINPUT_167106) 0) (not (= var_0xINPUT_167106 "AUEAICDdfN"))))
(check-sat var_0xINPUT_167106)